7418
[0, 1, 2, 3, 4, 27, 28, 51, 52, 53, 54, 55, 56, 32, 31, 30, 29, 7, 6, 5, 8, 9, 10, 33, 34, 12, 11, 13, 14, 38, 37, 36, 35, 57, 58, 59, 60, 61, 62, 63, 40, 39, 15, 16, 17, 41, 18, 42, 19, 43, 44, 20, 21, 22, 45, 68, 66, 67, 91, 90, 112, 89, 88, 87, 65, 64, 86, 85, 109, 108, 106, 107, 130, 131, 132, 133, 110, 111, 113, 114, 137, 160, 159, 136, 135, 134, 157, 158, 181, 182, 183, 180, 203, 202, 201, 200, 176, 177, 178, 179, 156, 155, 154, 153, 152, 151, 150, 127, 129, 128, 104, 103, 105, 84, 83, 82, 81, 80, 79, 78, 77, 76, 75, 99, 101, 102, 100, 98, 119, 120, 121, 122, 123, 124, 125, 126, 149, 148, 147, 146, 145, 144, 143, 142, 141, 163, 164, 165, 166, 167, 168, 169, 170, 171, 172, 173, 174, 175, 199, 198, 197, 196, 195, 194, 193, 191, 192, 216, 217, 218, 219, 220, 221, 222, 223, 224, 225, 226, 227, 204, 205, 206, 228, 229, 252, 251, 250, 249, 272, 273, 274, 275, 298, 297, 296, 295, 294, 293, 292, 291, 290, 289, 288, 287, 286, 285, 261, 262, 263, 264, 265, 266, 267, 268, 269, 270, 271, 248, 247, 246, 245, 244, 243, 242, 241, 240, 239, 238, 215, 214, 237, 236, 257, 258, 256, 279, 280, 281, 259, 260, 282, 283, 284, 305, 306, 329, 328, 350, 351, 352, 353, 354, 355, 356, 357, 358, 382, 359, 360, 361, 338, 337, 336, 335, 334, 333, 332, 331, 330, 307, 308, 309, 310, 311, 312, 313, 314, 315, 316, 317, 318, 319, 320, 321, 344, 343, 342, 341, 364, 340, 339, 363, 362, 385, 384, 383, 381, 380, 379, 378, 377, 376, 375, 373, 372, 374, 396, 397, 398, 399, 400, 401, 402, 403, 404, 405, 406, 407, 408, 386, 409, 387, 410, 411, 388, 389, 366, 365, 367, 390, 412, 413, 436, 435, 434, 433, 432, 431, 430, 429, 428, 427, 426, 425, 424, 423, 422, 421, 420, 419, 443, 466, 465, 442, 441, 464, 463, 487, 488, 489, 490, 491, 515, 492, 493, 494, 495, 496, 497, 498, 499, 500, 501, 502, 503, 504, 480, 479, 478, 477, 476, 475, 474, 473, 472, 471, 470, 469, 468, 467, 444, 445, 446, 447, 448, 449, 450, 451, 452, 453, 454, 455, 456, 457, 458, 459, 481, 482, 505, 528, 527, 526, 525, 524, 523, 522, 521, 520, 519, 518, 517, 540, 541, 542, 543, 544, 545, 546, 547, 548, 549, 550, 551, 574, 573, 572, 571, 570, 569, 568, 567, 566, 565, 564, 563, 562, 539, 516, 538, 561, 560, 559, 558, 557, 556, 555, 554, 553, 552, 529, 530, 531, 532, 533, 534, 535, 536, 537, 514, 513, 512, 511, 510, 509, 508, 507, 506, 486, 485, 484, 483, 460, 461, 462, 439, 438, 437, 414, 415, 416, 440, 417, 418, 395, 394, 371, 393, 392, 391, 368, 369, 370, 349, 348, 347, 346, 345, 322, 323, 324, 325, 326, 327, 304, 303, 302, 301, 300, 299, 277, 278, 276, 254, 255, 253, 230, 231, 232, 233, 234, 235, 213, 212, 210, 209, 207, 208, 211, 190, 189, 188, 187, 186, 185, 184, 161, 162, 139, 138, 140, 117, 118, 94, 116, 115, 93, 95, 96, 97, 74, 73, 50, 49, 72, 71, 70, 92, 69, 46, 23, 47, 48, 26, 25, 24]
